QPLIB_2987
LCQ
minimize
208 # number of variables
204 # number of constraints
0.0 # default value for linear coefficients in objective
5 # number of non-default linear coefficients in objective
1 1.0
2 1.0
3 1.0
4 1.0
5 1.0
0.0 # objective constant
90 # number of quadratic terms in all constraints
115 155241385 1 2.0
116 32593 1 2.0
117 39639953 1 2.0
118 2 1 2.0
119 66 1 2.0
120 210 1 2.0
121 155241385 1 2.0
122 32593 1 2.0
123 155241385 39619985 2.0
124 32593 1 2.0
125 305 1 2.0
126 2 1 2.0
127 113 1 2.0
128 210 1 2.0
129 131330657 1 2.0
130 32593 1 2.0
131 39619985 1 2.0
132 1 1 2.0
133 305 1 2.0
134 1 1 2.0
135 113 1 2.0
136 1 1 2.0
137 131330657 39617089 2.0
138 32593 1 2.0
139 39620641 1 2.0
140 1 1 2.0
141 1 1 2.0
142 1 1 2.0
143 1 1 2.0
144 1 1 2.0
145 39617089 1 2.0
146 1 1 2.0
147 39620641 1 2.0
148 10 1 2.0
149 1 1 2.0
150 1 1 2.0
151 1 1 2.0
152 1027 1 2.0
153 39621121 1 2.0
154 1 1 2.0
155 34 1 2.0
156 10 1 2.0
157 1818576901 1 2.0
158 32625 1 2.0
159 155241337 1 2.0
160 32593 1027 2.0
161 39621121 33 2.0
162 1 1 2.0
163 50 34 2.0
164 1 1 2.0
165 1818576901 1651076122 2.0
166 1852403556 32625 2.0
167 1768711012 155241337 2.0
168 775173731 32593 2.0
169 1646292852 33 2.0
170 824209008 1 2.0
171 12321 50 2.0
172 1 1 2.0
173 1651076122 1 2.0
174 1852403556 1 2.0
175 1768711012 50 2.0
176 775173731 1 2.0
177 1651076122 1646292852 2.0
178 1852403556 824209008 2.0
179 1768711012 12321 2.0
180 775173731 1 2.0
181 1663070068 1 2.0
182 824206179 1 2.0
183 12321 50 2.0
184 1 1 2.0
185 1651076122 1 2.0
186 1852403556 1 2.0
187 1768711012 50 2.0
188 775173731 1 2.0
189 1663070068 1651076122 2.0
190 1852403556 824206179 2.0
191 1768711012 12321 2.0
192 775173731 1 2.0
193 1646292852 1 2.0
194 824209008 1 2.0
195 12321 50 2.0
196 1 1 2.0
197 1651076122 39583745 2.0
198 1852403556 1 2.0
199 1768711012 50 2.0
200 775173731 1 2.0
201 1651076122 1646292852 2.0
202 1852403556 824209008 2.0
203 1768711012 12321 2.0
204 775173731 1 2.0
657 # number of linear terms in all constraints
1 6 -1.0
1 7 -1.0
1 8 -1.0
1 9 -1.0
1 10 -1.0
1 11 -1.0
2 12 -1.0
2 13 -1.0
2 14 -1.0
2 15 -1.0
2 16 -1.0
2 17 -1.0
3 18 -1.0
3 19 -1.0
3 20 -1.0
3 21 -1.0
3 22 -1.0
3 23 -1.0
4 1 1.0
4 7 -1.0
4 13 -1.0
4 19 -1.0
4 24 -1.0
4 25 -1.0
4 26 -1.0
4 27 -1.0
4 28 -1.0
5 2 1.0
5 8 -1.0
5 14 -1.0
5 20 -1.0
5 29 -1.0
5 30 -1.0
5 31 -1.0
5 32 -1.0
5 33 -1.0
6 3 1.0
6 9 -1.0
6 15 -1.0
6 21 -1.0
6 34 -1.0
6 35 -1.0
6 36 -1.0
6 37 -1.0
6 38 -1.0
7 4 1.0
7 10 -1.0
7 16 -1.0
7 22 -1.0
7 39 -1.0
7 40 -1.0
7 41 -1.0
7 42 -1.0
7 43 -1.0
8 5 1.0
8 11 -1.0
8 17 -1.0
8 23 -1.0
8 44 -1.0
8 45 -1.0
8 46 -1.0
8 47 -1.0
8 48 -1.0
9 1 1.0
9 24 -1.0
9 29 -1.0
9 34 -1.0
9 39 -1.0
9 44 -1.0
9 49 -1.0
10 2 1.0
10 25 -1.0
10 30 -1.0
10 35 -1.0
10 40 -1.0
10 45 -1.0
10 50 -1.0
11 3 1.0
11 26 -1.0
11 31 -1.0
11 36 -1.0
11 41 -1.0
11 46 -1.0
11 51 -1.0
12 4 1.0
12 27 -1.0
12 32 -1.0
12 37 -1.0
12 42 -1.0
12 47 -1.0
12 52 -1.0
13 5 1.0
13 28 -1.0
13 33 -1.0
13 38 -1.0
13 43 -1.0
13 48 -1.0
13 53 -1.0
14 6 -1.0
14 12 -1.0
14 18 -1.0
14 49 -1.0
14 50 -1.0
14 51 -1.0
14 52 -1.0
14 53 -1.0
14 54 1.0
15 55 -1.0
15 56 -1.0
15 57 -1.0
15 58 -1.0
15 59 -1.0
15 60 -1.0
16 61 -1.0
16 62 -1.0
16 63 -1.0
16 64 -1.0
16 65 -1.0
16 66 -1.0
17 67 -1.0
17 68 -1.0
17 69 -1.0
17 70 -1.0
17 71 -1.0
17 72 -1.0
18 73 -1.0
18 74 -1.0
18 75 -1.0
18 76 -1.0
18 77 -1.0
18 78 -1.0
19 79 -1.0
19 80 -1.0
19 81 -1.0
19 82 -1.0
19 83 -1.0
19 84 -1.0
20 85 -1.0
20 86 -1.0
20 87 -1.0
20 88 -1.0
20 89 -1.0
20 90 -1.0
21 56 -1.0
21 91 500.0
22 62 -1.0
22 91 10000.0
23 57 -1.0
23 92 500.0
24 63 -1.0
24 92 10000.0
25 58 -1.0
25 93 500.0
26 64 -1.0
26 93 10000.0
27 59 -1.0
27 94 500.0
28 65 -1.0
28 94 10000.0
29 60 -1.0
29 95 500.0
30 66 -1.0
30 95 10000.0
31 68 -1.0
31 96 13200.0
32 74 -1.0
32 96 16800.0
33 69 -1.0
33 97 13200.0
34 75 -1.0
34 97 16800.0
35 70 -1.0
35 98 13200.0
36 76 -1.0
36 98 16800.0
37 71 -1.0
37 99 13200.0
38 77 -1.0
38 99 16800.0
39 72 -1.0
39 100 13200.0
40 78 -1.0
40 100 16800.0
41 80 -1.0
41 101 7000.0
42 86 -1.0
42 101 1750.0
43 81 -1.0
43 102 7000.0
44 87 -1.0
44 102 1750.0
45 82 -1.0
45 103 7000.0
46 88 -1.0
46 103 1750.0
47 83 -1.0
47 104 7000.0
48 89 -1.0
48 104 1750.0
49 84 -1.0
49 105 7000.0
50 90 -1.0
50 105 1750.0
51 55 -1.0
51 106 500.0
52 61 -1.0
52 106 10000.0
53 67 -1.0
53 107 13200.0
54 73 -1.0
54 107 16800.0
55 79 -1.0
55 108 7000.0
56 85 -1.0
56 108 1750.0
57 7 -1.0
57 91 50.0
58 8 -1.0
58 92 50.0
59 9 -1.0
59 93 50.0
60 10 -1.0
60 94 50.0
61 11 -1.0
61 95 50.0
62 13 -1.0
62 96 120.0
63 14 -1.0
63 97 120.0
64 15 -1.0
64 98 120.0
65 16 -1.0
65 99 120.0
66 17 -1.0
66 100 120.0
67 19 -1.0
67 101 70.0
68 20 -1.0
68 102 70.0
69 21 -1.0
69 103 70.0
70 22 -1.0
70 104 70.0
71 23 -1.0
71 105 70.0
72 6 -1.0
72 106 50.0
73 12 -1.0
73 107 120.0
74 18 -1.0
74 108 70.0
75 91 1.0
75 92 1.0
75 93 1.0
75 94 1.0
75 95 1.0
75 106 1.0
76 96 1.0
76 97 1.0
76 98 1.0
76 99 1.0
76 100 1.0
76 107 1.0
77 101 1.0
77 102 1.0
77 103 1.0
77 104 1.0
77 105 1.0
77 108 1.0
78 1 -145.0
78 56 1.0
78 68 1.0
78 80 1.0
78 109 1.0
78 110 1.0
78 111 1.0
78 112 1.0
78 113 1.0
79 1 -400.0
79 62 1.0
79 74 1.0
79 86 1.0
79 114 1.0
79 115 1.0
79 116 1.0
79 117 1.0
79 118 1.0
80 2 -110.0
80 57 1.0
80 69 1.0
80 81 1.0
80 119 1.0
80 120 1.0
80 121 1.0
80 122 1.0
80 123 1.0
81 2 -90.0
81 63 1.0
81 75 1.0
81 87 1.0
81 124 1.0
81 125 1.0
81 126 1.0
81 127 1.0
81 128 1.0
82 3 -90.0
82 58 1.0
82 70 1.0
82 82 1.0
82 129 1.0
82 130 1.0
82 131 1.0
82 132 1.0
82 133 1.0
83 3 -100.0
83 64 1.0
83 76 1.0
83 88 1.0
83 134 1.0
83 135 1.0
83 136 1.0
83 137 1.0
83 138 1.0
84 4 -200.0
84 59 1.0
84 71 1.0
84 83 1.0
84 139 1.0
84 140 1.0
84 141 1.0
84 142 1.0
84 143 1.0
85 4 -90.0
85 65 1.0
85 77 1.0
85 89 1.0
85 144 1.0
85 145 1.0
85 146 1.0
85 147 1.0
85 148 1.0
86 5 -50.0
86 60 1.0
86 72 1.0
86 84 1.0
86 149 1.0
86 150 1.0
86 151 1.0
86 152 1.0
86 153 1.0
87 5 -80.0
87 66 1.0
87 78 1.0
87 90 1.0
87 154 1.0
87 155 1.0
87 156 1.0
87 157 1.0
87 158 1.0
88 56 0.1
88 68 0.1
88 80 0.1
88 109 0.1
88 110 0.1
88 111 0.1
88 112 0.1
88 113 0.1
88 159 -1.0
89 62 1.0
89 74 1.0
89 86 1.0
89 114 1.0
89 115 1.0
89 116 1.0
89 117 1.0
89 118 1.0
89 160 -1.0
90 57 0.3
90 69 0.3
90 81 0.3
90 119 0.3
90 120 0.3
90 121 0.3
90 122 0.3
90 123 0.3
90 161 -1.0
91 63 0.1
91 75 0.1
91 87 0.1
91 124 0.1
91 125 0.1
91 126 0.1
91 127 0.1
91 128 0.1
91 162 -1.0
92 58 1.0
92 70 1.0
92 82 1.0
92 129 1.0
92 130 1.0
92 131 1.0
92 132 1.0
92 133 1.0
92 163 -1.0
93 64 0.2
93 76 0.2
93 88 0.2
93 134 0.2
93 135 0.2
93 136 0.2
93 137 0.2
93 138 0.2
93 164 -1.0
94 59 0.5
94 71 0.5
94 83 0.5
94 139 0.5
94 140 0.5
94 141 0.5
94 142 0.5
94 143 0.5
94 165 -1.0
95 65 1.0
95 77 1.0
95 89 1.0
95 144 1.0
95 145 1.0
95 146 1.0
95 147 1.0
95 148 1.0
95 166 -1.0
96 60 0.35
96 72 0.35
96 84 0.35
96 149 0.35
96 150 0.35
96 151 0.35
96 152 0.35
96 153 0.35
96 167 -1.0
97 66 0.4
97 78 0.4
97 90 0.4
97 154 0.4
97 155 0.4
97 156 0.4
97 157 0.4
97 158 0.4
97 168 -1.0
98 109 -1.0
98 119 -1.0
98 129 -1.0
98 139 -1.0
98 149 -1.0
98 159 1.0
98 169 -1.0
99 114 -1.0
99 124 -1.0
99 134 -1.0
99 144 -1.0
99 154 -1.0
99 160 1.0
99 170 -1.0
100 110 -1.0
100 120 -1.0
100 130 -1.0
100 140 -1.0
100 150 -1.0
100 161 1.0
100 171 -1.0
101 115 -1.0
101 125 -1.0
101 135 -1.0
101 145 -1.0
101 155 -1.0
101 162 1.0
101 172 -1.0
102 111 -1.0
102 121 -1.0
102 131 -1.0
102 141 -1.0
102 151 -1.0
102 163 1.0
102 173 -1.0
103 116 -1.0
103 126 -1.0
103 136 -1.0
103 146 -1.0
103 156 -1.0
103 164 1.0
103 174 -1.0
104 112 -1.0
104 122 -1.0
104 132 -1.0
104 142 -1.0
104 152 -1.0
104 165 1.0
104 175 -1.0
105 117 -1.0
105 127 -1.0
105 137 -1.0
105 147 -1.0
105 157 -1.0
105 166 1.0
105 176 -1.0
106 113 -1.0
106 123 -1.0
106 133 -1.0
106 143 -1.0
106 153 -1.0
106 167 1.0
106 177 -1.0
107 118 -1.0
107 128 -1.0
107 138 -1.0
107 148 -1.0
107 158 -1.0
107 168 1.0
107 178 -1.0
108 179 1.0
108 180 1.0
108 181 1.0
108 182 1.0
108 183 1.0
108 184 1.0
109 185 1.0
109 186 1.0
109 187 1.0
109 188 1.0
109 189 1.0
109 190 1.0
110 191 1.0
110 192 1.0
110 193 1.0
110 194 1.0
110 195 1.0
110 196 1.0
111 197 1.0
111 198 1.0
111 199 1.0
111 200 1.0
111 201 1.0
111 202 1.0
112 203 1.0
112 204 1.0
112 205 1.0
112 206 1.0
112 207 1.0
112 208 1.0
113 54 -10.0
113 55 1.0
113 67 1.0
113 79 1.0
113 169 1.0
113 171 1.0
113 173 1.0
113 175 1.0
113 177 1.0
114 54 -5.0
114 61 1.0
114 73 1.0
114 85 1.0
114 170 1.0
114 172 1.0
114 174 1.0
114 176 1.0
114 178 1.0
115 109 -1.0
116 114 -1.0
117 119 -1.0
118 124 -1.0
119 129 -1.0
120 134 -1.0
121 139 -1.0
122 144 -1.0
123 149 -1.0
124 154 -1.0
125 110 -1.0
126 115 -1.0
127 120 -1.0
128 125 -1.0
129 130 -1.0
130 135 -1.0
131 140 -1.0
132 145 -1.0
133 150 -1.0
134 155 -1.0
135 111 -1.0
136 116 -1.0
137 121 -1.0
138 126 -1.0
139 131 -1.0
140 136 -1.0
141 141 -1.0
142 146 -1.0
143 151 -1.0
144 156 -1.0
145 112 -1.0
146 117 -1.0
147 122 -1.0
148 127 -1.0
149 132 -1.0
150 137 -1.0
151 142 -1.0
152 147 -1.0
153 152 -1.0
154 157 -1.0
155 113 -1.0
156 118 -1.0
157 123 -1.0
158 128 -1.0
159 133 -1.0
160 138 -1.0
161 143 -1.0
162 148 -1.0
163 153 -1.0
164 158 -1.0
165 169 -1.0
166 170 -1.0
167 171 -1.0
168 172 -1.0
169 173 -1.0
170 174 -1.0
171 175 -1.0
172 176 -1.0
173 177 -1.0
174 178 -1.0
175 24 -1.0
176 29 -1.0
177 34 -1.0
178 39 -1.0
179 44 -1.0
180 25 -1.0
181 30 -1.0
182 35 -1.0
183 40 -1.0
184 45 -1.0
185 26 -1.0
186 31 -1.0
187 36 -1.0
188 41 -1.0
189 46 -1.0
190 27 -1.0
191 32 -1.0
192 37 -1.0
193 42 -1.0
194 47 -1.0
195 28 -1.0
196 33 -1.0
197 38 -1.0
198 43 -1.0
199 48 -1.0
200 49 -1.0
201 50 -1.0
202 51 -1.0
203 52 -1.0
204 53 -1.0
1.79769313486232E+308 # value for infinity
0.0 # default left-hand-side value
29 # number of non-default left-hand-sides
1 -50.0
2 -120.0
3 -70.0
15 -500.0
16 -10000.0
17 -13200.0
18 -16800.0
19 -7000.0
20 -1750.0
75 1.0
76 1.0
77 1.0
78 -1.79769313486232E+308
79 -1.79769313486232E+308
80 -1.79769313486232E+308
81 -1.79769313486232E+308
82 -1.79769313486232E+308
83 -1.79769313486232E+308
84 -1.79769313486232E+308
85 -1.79769313486232E+308
86 -1.79769313486232E+308
87 -1.79769313486232E+308
108 1.0
109 1.0
110 1.0
111 1.0
112 1.0
113 -1.79769313486232E+308
114 -1.79769313486232E+308
0.0 # default right-hand-side value
17 # number of non-default right-hand-sides
1 -50.0
2 -120.0
3 -70.0
15 -500.0
16 -10000.0
17 -13200.0
18 -16800.0
19 -7000.0
20 -1750.0
75 1.0
76 1.0
77 1.0
108 1.0
109 1.0
110 1.0
111 1.0
112 1.0
0.0 # default variable lower bound value
0 # number of non-default variable lower bounds
1000000.0 # default variable upper bound value
0 # number of non-default variable upper bounds
0.0 # default variable primal value in starting point
0 # number of non-default variable primal values in starting point
0.0 # default constraint dual value in starting point
0 # number of non-default constraint dual values in starting point
0.0 # default variable bound dual value in starting point
0 # number of non-default variable bound dual values in starting point
0 # number of non-default variable names
0 # number of non-default constraint names
